3 
4  58 
5  11 35 51 
6  06 20 35 52 
7  07 22 37 52 
8  07 22 37 52 
9  07 22 37 54 
10  09 24 39 54 
11  09 24 39 54 
12  09 24 39 54 
13  09 24 39 54 
14  09 24 39 53 
15  07 22 37 52 
16  07 22 37 52 
17  07 22 37 52 
18  07 22 37 53 
19  08 23 38 53 
20  08 23 38 53 
21  08 23 53 
22  
23  
0 
